DIMACS2
80 353 336 575 418 599 270 308 297 252 365 485 325 264 596 226 138 393 630 334 216 332 473 151 385 452 179 143 195 236 407 228 421 157 590 76 248 180 244 525 45 290 163 183 317 595 94 156 436 108 122 355 160 320 302 634 463 102 196 505 106 23 636 47 51 113 351 281 125 610 49 298 538 455 191 442 214 24 509 104 604
p edge 640 2631
e 0 634 15.0
e 0 416 1.0
e 0 617 1.0
e 0 527 2.0
e 1 579 3.0
e 1 39 1.0
e 1 532 1.0
e 1 585 2.0
e 2 24 46.0
e 2 192 1.0
e 2 604 12.0
e 2 455 43.0
e 3 160 28.0
e 3 519 1.0
e 3 62 1.0
e 3 282 2.0
e 4 170 1.0
e 4 83 1.0
e 4 569 1.0
e 4 115 1.0
e 5 431 1.0
e 5 627 1.0
e 5 182 1.0
e 5 332 45.0
e 6 185 1.0
e 6 404 1.0
e 6 381 2.0
e 6 171 2.0
e 7 594 1.0
e 7 490 1.0
e 7 118 2.0
e 7 391 1.0
e 8 192 2.0
e 8 486 2.0
e 8 20 1.0
e 8 269 2.0
e 9 293 1.0
e 9 144 1.0
e 9 473 18.0
e 9 114 1.0
e 10 277 1.0
e 10 92 1.0
e 10 376 2.0
e 10 151 45.0
e 11 155 1.0
e 11 38 3.0
e 11 84 2.0
e 11 381 1.0
e 12 384 1.0
e 12 568 2.0
e 12 583 1.0
e 12 633 1.0
e 13 295 1.0
e 13 526 2.0
e 13 406 1.0
e 13 257 1.0
e 14 231 1.0
e 14 0 1.0
e 14 17 1.0
e 14 466 1.0
e 15 344 1.0
e 15 498 1.0
e 15 125 42.0
e 15 619 1.0
e 16 583 1.0
e 16 74 1.0
e 16 449 1.0
e 16 174 2.0
e 17 438 1.0
e 17 526 1.0
e 17 113 47.0
e 17 383 3.0
e 18 288 2.0
e 18 203 1.0
e 18 43 1.0
e 18 449 1.0
e 19 169 1.0
e 19 610 46.0
e 19 161 1.0
e 19 23 35.0
e 20 138 21.0
e 20 357 1.0
e 20 287 1.0
e 20 159 1.0
e 21 515 1.0
e 21 185 1.0
e 21 92 1.0
e 21 612 1.0
e 22 161 2.0
e 22 632 1.0
e 22 418 32.0
e 22 247 1.0
e 23 512 48.0
e 23 546 46.0
e 23 559 36.0
e 23 55 34.0
e 24 561 30.0
e 24 484 40.0
e 24 610 1.0
e 24 16 46.0
e 24 191 14.0
e 25 111 1.0
e 25 312 2.0
e 25 172 1.0
e 25 541 3.0
e 26 136 1.0
e 26 196 49.0
e 26 509 3.0
e 26 135 1.0
e 27 13 2.0
e 27 136 1.0
e 27 431 1.0
e 27 61 2.0
e 28 141 1.0
e 28 477 1.0
e 28 125 40.0
e 28 312 1.0
e 29 57 1.0
e 29 338 1.0
e 29 511 1.0
e 29 347 1.0
e 30 537 1.0
e 30 325 4.0
e 30 61 1.0
e 30 402 3.0
e 31 521 2.0
e 31 311 2.0
e 31 352 1.0
e 31 127 1.0
e 32 431 2.0
e 32 156 32.0
e 32 162 1.0
e 32 154 2.0
e 33 198 1.0
e 33 11 1.0
e 33 623 2.0
e 33 625 1.0
e 34 23 7.0
e 34 193 1.0
e 34 599 33.0
e 34 361 1.0
e 35 19 1.0
e 35 250 1.0
e 35 64 1.0
e 35 510 1.0
e 36 146 1.0
e 36 113 41.0
e 36 466 1.0
e 36 74 1.0
e 37 314 1.0
e 37 421 29.0
e 37 549 1.0
e 37 465 1.0
e 38 209 1.0
e 38 404 1.0
e 38 223 1.0
e 38 578 1.0
e 39 374 1.0
e 39 286 1.0
e 39 6 1.0
e 39 592 1.0
e 40 397 3.0
e 40 317 26.0
e 40 426 1.0
e 40 337 1.0
e 41 410 2.0
e 41 285 1.0
e 41 375 2.0
e 41 149 1.0
e 42 265 1.0
e 42 288 2.0
e 42 493 1.0
e 42 393 16.0
e 43 239 1.0
e 43 407 21.0
e 43 230 2.0
e 43 405 1.0
e 44 438 1.0
e 44 43 2.0
e 44 506 1.0
e 44 154 1.0
e 45 573 9.0
e 45 18 27.0
e 45 460 46.0
e 45 300 6.0
e 46 505 45.0
e 46 124 2.0
e 46 576 1.0
e 46 10 1.0
e 47 638 29.0
e 47 272 21.0
e 47 238 22.0
e 47 243 11.0
e 47 595 7.0
e 47 24 21.0
e 47 436 37.0
e 47 151 19.0
e 47 49 27.0
e 48 480 1.0
e 48 203 1.0
e 48 610 2.0
e 48 633 1.0
e 49 62 23.0
e 49 115 23.0
e 49 129 1.0
e 49 503 16.0
e 49 76 43.0
e 49 106 12.0
e 50 427 1.0
e 50 93 1.0
e 50 284 2.0
e 50 542 1.0
e 51 511 48.0
e 51 13 33.0
e 51 361 22.0
e 51 611 8.0
e 52 131 1.0
e 52 275 1.0
e 52 552 1.0
e 52 236 36.0
e 53 588 1.0
e 53 462 1.0
e 53 129 2.0
e 53 345 1.0
e 54 456 1.0
e 54 442 38.0
e 54 481 1.0
e 54 401 1.0
e 55 346 1.0
e 55 154 1.0
e 55 444 2.0
e 55 308 16.0
e 56 353 11.0
e 56 284 1.0
e 56 355 39.0
e 56 443 1.0
e 57 575 3.0
e 57 494 1.0
e 57 378 1.0
e 57 601 3.0
e 58 74 1.0
e 58 400 1.0
e 58 596 6.0
e 58 128 2.0
e 59 465 1.0
e 59 544 1.0
e 59 356 1.0
e 59 452 3.0
e 60 234 1.0
e 60 331 1.0
e 60 18 1.0
e 60 542 1.0
e 61 414 1.0
e 61 445 1.0
e 61 235 1.0
e 61 601 2.0
e 62 13 2.0
e 62 59 1.0
e 62 564 1.0
e 62 342 2.0
e 63 310 1.0
e 63 594 1.0
e 63 116 2.0
e 63 293 2.0
e 64 358 1.0
e 64 260 1.0
e 64 628 1.0
e 65 221 2.0
e 65 28 1.0
e 65 70 1.0
e 65 584 2.0
e 66 122 5.0
e 66 229 1.0
e 66 56 1.0
e 66 117 1.0
e 67 268 1.0
e 67 175 1.0
e 67 39 1.0
e 67 433 1.0
e 68 398 1.0
e 68 266 1.0
e 68 467 1.0
e 68 43 1.0
e 69 618 1.0
e 69 475 2.0
e 69 284 1.0
e 69 595 47.0
e 70 151 32.0
e 70 599 35.0
e 70 56 1.0
e 70 356 1.0
e 71 107 1.0
e 71 581 1.0
e 71 194 2.0
e 71 413 2.0
e 72 536 1.0
e 72 48 1.0
e 72 84 1.0
e 72 242 1.0
e 73 225 1.0
e 73 388 1.0
e 73 260 1.0
e 73 91 1.0
e 74 189 2.0
e 74 537 1.0
e 74 259 1.0
e 74 598 2.0
e 75 299 1.0
e 75 97 1.0
e 75 256 1.0
e 75 181 1.0
e 76 4 44.0
e 76 333 28.0
e 76 336 36.0
e 76 46 1.0
e 77 297 29.0
e 77 599 29.0
e 77 522 1.0
e 77 220 1.0
e 78 353 40.0
e 78 227 1.0
e 78 497 1.0
e 78 132 2.0
e 79 401 1.0
e 79 152 1.0
e 79 281 17.0
e 79 638 2.0
e 80 296 1.0
e 80 574 2.0
e 80 535 2.0
e 80 69 2.0
e 81 0 1.0
e 81 97 1.0
e 81 383 1.0
e 81 79 2.0
e 82 531 1.0
e 82 155 2.0
e 82 469 2.0
e 82 258 1.0
e 83 590 21.0
e 83 274 1.0
e 83 35 1.0
e 83 253 1.0
e 84 500 1.0
e 84 138 48.0
e 84 437 1.0
e 84 282 1.0
e 85 603 1.0
e 85 419 1.0
e 85 387 1.0
e 85 287 2.0
e 86 260 2.0
e 86 360 2.0
e 86 102 45.0
e 86 517 2.0
e 87 206 2.0
e 87 48 2.0
e 87 210 1.0
e 87 425 2.0
e 88 237 2.0
e 88 616 1.0
e 88 21 1.0
e 88 579 2.0
e 89 103 1.0
e 89 360 1.0
e 89 498 1.0
e 89 530 2.0
e 90 462 2.0
e 90 390 2.0
e 90 502 1.0
e 90 582 1.0
e 91 595 22.0
e 91 221 1.0
e 91 245 1.0
e 91 585 2.0
e 92 485 48.0
e 92 330 2.0
e 92 237 1.0
e 92 341 1.0
e 93 613 1.0
e 93 170 1.0
e 93 482 1.0
e 93 99 1.0
e 94 8 23.0
e 94 27 35.0
e 94 222 38.0
e 94 459 24.0
e 94 596 39.0
e 95 104 3.0
e 95 437 1.0
e 95 357 2.0
e 95 142 1.0
e 96 354 1.0
e 96 632 1.0
e 96 637 2.0
e 96 469 1.0
e 97 37 1.0
e 97 109 1.0
e 97 461 1.0
e 97 347 2.0
e 98 625 1.0
e 98 327 1.0
e 98 423 1.0
e 98 185 1.0
e 99 101 1.0
e 99 69 1.0
e 99 397 1.0
e 99 216 42.0
e 100 342 1.0
e 100 115 1.0
e 100 76 48.0
e 100 255 1.0
e 101 407 33.0
e 101 121 1.0
e 101 316 2.0
e 101 299 1.0
e 102 266 44.0
e 102 121 24.0
e 102 620 1.0
e 102 365 15.0
e 102 418 26.0
e 103 192 1.0
e 103 286 1.0
e 103 220 1.0
e 103 633 1.0
e 104 470 32.0
e 104 478 48.0
e 104 215 42.0
e 104 538 17.0
e 104 47 47.0
e 104 94 9.0
e 104 575 7.0
e 105 481 1.0
e 105 563 2.0
e 105 322 1.0
e 105 295 1.0
e 106 596 38.0
e 106 122 42.0
e 106 383 39.0
e 106 71 28.0
e 107 616 2.0
e 107 201 1.0
e 107 401 1.0
e 107 360 1.0
e 108 262 15.0
e 108 128 24.0
e 108 48 34.0
e 108 6 20.0
e 108 49 20.0
e 108 102 41.0
e 108 122 29.0
e 109 49 10.0
e 109 73 1.0
e 109 35 1.0
e 109 440 2.0
e 110 496 1.0
e 110 201 2.0
e 110 563 1.0
e 110 369 2.0
e 111 289 1.0
e 111 318 1.0
e 111 300 1.0
e 111 66 1.0
e 112 283 1.0
e 112 241 1.0
e 112 77 1.0
e 112 390 1.0
e 113 619 35.0
e 113 82 28.0
e 113 626 25.0
e 113 257 46.0
e 113 385 15.0
e 113 336 34.0
e 114 600 1.0
e 114 46 1.0
e 114 440 1.0
e 115 355 47.0
e 115 548 2.0
e 115 78 2.0
e 115 184 1.0
e 116 621 2.0
e 116 636 1.0
e 116 521 2.0
e 116 402 1.0
e 117 162 1.0
e 117 27 1.0
e 117 329 1.0
e 117 628 1.0
e 118 347 1.0
e 118 12 1.0
e 118 505 40.0
e 118 471 3.0
e 119 621 1.0
e 119 158 2.0
e 119 379 1.0
e 119 13 1.0
e 120 300 2.0
e 120 163 44.0
e 120 577 1.0
e 120 424 1.0
e 121 550 1.0
e 121 52 1.0
e 121 312 2.0
e 121 109 1.0
e 122 338 12.0
e 122 407 29.0
e 122 59 41.0
e 122 284 7.0
e 123 285 1.0
e 123 371 1.0
e 123 346 1.0
e 123 91 1.0
e 124 416 2.0
e 124 28 2.0
e 124 400 1.0
e 124 25 1.0
e 125 269 5.0
e 125 561 4.0
e 125 403 5.0
e 125 391 30.0
e 126 59 1.0
e 126 590 33.0
e 126 547 2.0
e 126 529 1.0
e 127 112 1.0
e 127 338 2.0
e 127 469 1.0
e 127 318 1.0
e 128 101 1.0
e 128 480 1.0
e 128 566 1.0
e 128 350 1.0
e 129 74 2.0
e 129 621 1.0
e 129 552 2.0
e 129 198 1.0
e 130 564 2.0
e 130 512 1.0
e 130 593 1.0
e 130 469 1.0
e 131 16 1.0
e 131 171 1.0
e 131 515 1.0
e 131 269 1.0
e 132 148 1.0
e 132 245 1.0
e 132 502 2.0
e 132 17 1.0
e 133 188 1.0
e 133 268 1.0
e 133 311 1.0
e 133 178 1.0
e 134 260 1.0
e 134 310 1.0
e 134 598 1.0
e 134 116 1.0
e 135 526 1.0
e 135 44 1.0
e 135 425 1.0
e 135 372 1.0
e 136 592 1.0
e 136 256 1.0
e 136 526 1.0
e 136 432 1.0
e 137 189 1.0
e 137 64 1.0
e 137 619 1.0
e 137 155 1.0
e 138 503 49.0
e 138 241 31.0
e 138 512 16.0
e 138 304 30.0
e 139 98 1.0
e 139 246 2.0
e 139 353 3.0
e 139 263 1.0
e 140 208 1.0
e 140 439 1.0
e 140 100 2.0
e 140 364 1.0
e 141 285 1.0
e 141 562 1.0
e 141 275 1.0
e 141 449 1.0
e 142 40 2.0
e 142 566 2.0
e 142 125 25.0
e 142 134 2.0
e 143 202 48.0
e 143 548 44.0
e 143 602 27.0
e 143 34 7.0
e 144 579 1.0
e 144 516 1.0
e 144 239 1.0
e 144 82 2.0
e 145 411 1.0
e 145 520 1.0
e 145 599 3.0
e 145 497 1.0
e 146 465 1.0
e 146 298 3.0
e 146 10 1.0
e 146 618 1.0
e 147 387 1.0
e 147 1 1.0
e 147 471 1.0
e 147 384 1.0
e 148 515 2.0
e 148 405 1.0
e 148 407 35.0
e 148 294 2.0
e 149 312 2.0
e 149 162 1.0
e 149 168 1.0
e 149 453 2.0
e 150 254 1.0
e 150 455 38.0
e 150 159 2.0
e 150 556 2.0
e 151 11 33.0
e 151 543 13.0
e 151 250 7.0
e 151 209 6.0
e 152 69 1.0
e 152 169 1.0
e 152 13 1.0
e 152 554 1.0
e 153 631 1.0
e 153 296 1.0
e 153 158 1.0
e 153 554 1.0
e 154 126 2.0
e 154 45 30.0
e 154 83 2.0
e 155 499 2.0
e 155 219 1.0
e 155 246 2.0
e 155 401 2.0
e 156 46 33.0
e 156 87 37.0
e 156 505 10.0
e 156 117 47.0
e 156 604 3.0
e 156 214 47.0
e 156 108 28.0
e 156 485 22.0
e 157 569 37.0
e 157 591 24.0
e 157 536 43.0
e 157 459 9.0
e 157 151 18.0
e 157 216 41.0
e 157 365 40.0
e 158 460 2.0
e 158 96 2.0
e 158 62 1.0
e 158 390 1.0
e 159 8 1.0
e 159 88 1.0
e 159 430 1.0
e 159 246 1.0
e 160 262 49.0
e 160 340 29.0
e 160 202 34.0
e 160 412 5.0
e 160 302 10.0
e 161 84 1.0
e 161 387 1.0
e 161 135 1.0
e 161 476 1.0
e 162 287 1.0
e 162 413 2.0
e 162 490 1.0
e 162 121 2.0
e 163 185 8.0
e 163 143 15.0
e 163 281 8.0
e 163 66 33.0
e 164 165 1.0
e 164 279 1.0
e 164 486 1.0
e 164 510 1.0
e 165 373 1.0
e 165 532 1.0
e 165 415 2.0
e 165 116 2.0
e 166 246 1.0
e 166 159 1.0
e 166 362 1.0
e 166 601 3.0
e 167 557 1.0
e 167 280 2.0
e 167 287 1.0
e 167 91 2.0
e 168 140 1.0
e 168 568 1.0
e 168 263 1.0
e 168 220 1.0
e 169 472 1.0
e 169 574 1.0
e 169 547 1.0
e 169 466 1.0
e 170 177 3.0
e 170 282 1.0
e 170 318 1.0
e 170 492 2.0
e 171 63 1.0
e 171 342 1.0
e 171 219 1.0
e 171 213 1.0
e 172 359 2.0
e 172 505 42.0
e 172 405 3.0
e 172 417 1.0
e 173 590 37.0
e 173 561 2.0
e 173 242 1.0
e 173 612 1.0
e 174 55 1.0
e 174 352 1.0
e 174 460 1.0
e 174 235 1.0
e 175 523 1.0
e 175 48 1.0
e 175 388 1.0
e 175 273 1.0
e 176 245 1.0
e 176 321 1.0
e 176 299 1.0
e 176 559 2.0
e 177 550 2.0
e 177 249 1.0
e 177 151 10.0
e 177 166 1.0
e 178 355 40.0
e 178 591 3.0
e 178 250 2.0
e 178 369 1.0
e 179 248 13.0
e 179 401 48.0
e 179 344 26.0
e 179 33 40.0
e 180 154 38.0
e 180 362 21.0
e 180 74 16.0
e 180 155 32.0
e 180 104 7.0
e 180 106 12.0
e 180 308 16.0
e 181 454 1.0
e 181 291 1.0
e 181 288 3.0
e 181 331 1.0
e 182 271 2.0
e 182 422 1.0
e 182 301 1.0
e 182 234 1.0
e 183 226 1.0
e 183 171 13.0
e 183 163 31.0
e 183 76 34.0
e 183 297 17.0
e 184 42 1.0
e 184 315 1.0
e 184 143 8.0
e 184 214 15.0
e 185 165 2.0
e 185 46 1.0
e 185 360 2.0
e 185 119 1.0
e 186 334 40.0
e 186 632 1.0
e 186 318 1.0
e 186 132 1.0
e 187 79 2.0
e 187 469 2.0
e 187 19 2.0
e 187 473 7.0
e 188 95 1.0
e 188 323 1.0
e 188 400 1.0
e 188 486 1.0
e 189 187 1.0
e 189 421 20.0
e 189 245 1.0
e 190 252 42.0
e 190 572 1.0
e 190 11 2.0
e 190 3 1.0
e 191 174 48.0
e 191 305 20.0
e 191 213 16.0
e 191 19 34.0
e 191 365 43.0
e 191 302 8.0
e 191 180 40.0
e 192 96 1.0
e 192 475 1.0
e 192 275 1.0
e 192 292 2.0
e 193 403 1.0
e 193 345 2.0
e 193 28 1.0
e 193 272 1.0
e 194 611 1.0
e 194 341 1.0
e 194 3 1.0
e 194 430 1.0
e 195 585 18.0
e 195 191 1.0
e 195 531 4.0
e 195 368 32.0
e 195 264 41.0
e 195 281 21.0
e 195 270 47.0
e 196 599 6.0
e 196 269 2.0
e 196 462 17.0
e 196 137 30.0
e 196 156 6.0
e 196 113 46.0
e 197 285 1.0
e 197 125 19.0
e 197 154 1.0
e 197 53 1.0
e 198 389 2.0
e 198 87 1.0
e 198 40 2.0
e 198 302 10.0
e 199 179 1.0
e 199 408 1.0
e 199 363 1.0
e 199 428 1.0
e 200 390 3.0
e 200 79 1.0
e 200 107 1.0
e 200 574 1.0
e 201 593 2.0
e 201 310 1.0
e 201 529 1.0
e 201 7 1.0
e 202 608 3.0
e 202 348 1.0
e 202 116 1.0
e 202 329 1.0
e 203 367 1.0
e 203 403 2.0
e 203 221 1.0
e 203 143 39.0
e 204 62 1.0
e 204 117 2.0
e 204 334 7.0
e 204 162 2.0
e 205 482 2.0
e 205 518 1.0
e 205 322 2.0
e 205 41 2.0
e 206 452 8.0
e 206 138 41.0
e 206 634 39.0
e 206 68 1.0
e 207 101 1.0
e 207 377 2.0
e 207 301 1.0
e 207 15 1.0
e 208 80 1.0
e 208 471 1.0
e 208 383 1.0
e 208 331 2.0
e 209 466 2.0
e 209 9 2.0
e 209 609 1.0
e 209 235 1.0
e 210 8 2.0
e 210 622 1.0
e 210 179 7.0
e 210 601 1.0
e 211 347 2.0
e 211 563 1.0
e 211 317 10.0
e 211 526 1.0
e 212 231 2.0
e 212 454 1.0
e 212 458 1.0
e 212 345 1.0
e 213 122 34.0
e 213 360 1.0
e 213 541 1.0
e 213 361 1.0
e 214 318 10.0
e 214 228 31.0
e 214 451 4.0
e 214 298 44.0
e 215 52 1.0
e 215 255 2.0
e 215 159 1.0
e 215 601 1.0
e 216 239 2.0
e 216 196 1.0
e 216 18 24.0
e 216 594 44.0
e 216 636 43.0
e 216 160 22.0
e 217 346 1.0
e 217 324 1.0
e 217 522 1.0
e 217 539 2.0
e 218 399 1.0
e 218 75 1.0
e 218 50 1.0
e 218 132 2.0
e 219 563 1.0
e 219 411 1.0
e 219 310 2.0
e 219 356 1.0
e 220 245 1.0
e 220 439 1.0
e 220 570 1.0
e 220 621 1.0
e 221 597 2.0
e 221 42 3.0
e 221 503 2.0
e 221 277 1.0
e 222 549 1.0
e 222 454 1.0
e 222 430 2.0
e 222 127 1.0
e 223 227 2.0
e 223 554 1.0
e 223 309 1.0
e 223 161 1.0
e 224 1 1.0
e 224 274 1.0
e 224 167 1.0
e 224 576 1.0
e 225 209 2.0
e 225 565 1.0
e 225 237 1.0
e 225 480 1.0
e 226 626 12.0
e 226 232 24.0
e 226 611 12.0
e 226 475 9.0
e 226 604 33.0
e 227 346 1.0
e 227 9 2.0
e 227 567 1.0
e 227 525 15.0
e 228 231 31.0
e 228 271 45.0
e 228 633 42.0
e 228 124 48.0
e 228 248 24.0
e 228 365 37.0
e 228 264 21.0
e 229 331 1.0
e 229 171 2.0
e 229 162 1.0
e 229 209 1.0
e 230 249 1.0
e 230 154 1.0
e 230 508 1.0
e 230 239 1.0
e 231 372 2.0
e 231 50 3.0
e 231 546 2.0
e 231 130 1.0
e 232 172 2.0
e 232 533 1.0
e 232 443 1.0
e 232 15 1.0
e 233 594 1.0
e 233 624 1.0
e 233 265 2.0
e 233 601 2.0
e 234 116 1.0
e 234 470 1.0
e 234 305 2.0
e 234 226 25.0
e 235 138 47.0
e 235 87 2.0
e 235 327 1.0
e 235 268 1.0
e 236 221 12.0
e 236 13 24.0
e 236 248 24.0
e 236 51 14.0
e 236 485 13.0
e 237 399 1.0
e 237 405 1.0
e 237 633 1.0
e 237 6 1.0
e 238 144 1.0
e 238 83 3.0
e 238 505 48.0
e 238 212 1.0
e 239 161 1.0
e 239 4 1.0
e 239 44 1.0
e 239 126 1.0
e 240 329 1.0
e 240 420 1.0
e 240 173 2.0
e 240 241 2.0
e 241 381 1.0
e 241 194 1.0
e 241 382 1.0
e 241 571 1.0
e 242 120 2.0
e 242 411 1.0
e 242 129 1.0
e 242 486 2.0
e 243 381 2.0
e 243 588 1.0
e 243 383 1.0
e 243 224 1.0
e 244 596 33.0
e 244 331 47.0
e 244 340 1.0
e 244 590 36.0
e 244 636 34.0
e 244 485 14.0
e 244 157 14.0
e 244 163 44.0
e 244 236 32.0
e 245 252 6.0
e 245 9 1.0
e 245 420 2.0
e 245 297 35.0
e 246 391 1.0
e 246 70 1.0
e 246 142 1.0
e 246 360 1.0
e 247 307 1.0
e 247 273 1.0
e 247 435 2.0
e 247 263 1.0
e 248 555 45.0
e 248 632 30.0
e 248 208 24.0
e 248 207 10.0
e 248 183 45.0
e 249 539 2.0
e 249 61 1.0
e 249 434 2.0
e 249 310 2.0
e 250 326 1.0
e 250 283 1.0
e 250 103 1.0
e 250 132 3.0
e 251 143 41.0
e 251 148 2.0
e 251 135 1.0
e 251 397 1.0
e 252 132 20.0
e 252 145 49.0
e 252 388 37.0
e 252 31 23.0
e 253 131 1.0
e 253 125 41.0
e 253 23 35.0
e 253 243 1.0
e 254 232 1.0
e 254 284 1.0
e 254 582 1.0
e 254 69 1.0
e 255 193 1.0
e 255 472 1.0
e 255 630 49.0
e 256 407 10.0
e 256 107 2.0
e 256 88 1.0
e 256 93 2.0
e 257 429 1.0
e 257 17 1.0
e 257 219 1.0
e 257 87 1.0
e 258 414 1.0
e 258 497 1.0
e 258 629 1.0
e 258 622 1.0
e 259 478 1.0
e 259 636 19.0
e 259 616 2.0
e 259 149 1.0
e 260 596 37.0
e 260 109 1.0
e 260 318 1.0
e 260 263 1.0
e 261 440 1.0
e 261 637 1.0
e 261 152 1.0
e 261 471 1.0
e 262 49 36.0
e 262 89 1.0
e 262 546 2.0
e 262 80 1.0
e 263 626 1.0
e 263 76 6.0
e 263 418 41.0
e 263 107 1.0
e 264 239 10.0
e 264 398 14.0
e 264 243 23.0
e 264 65 38.0
e 264 191 26.0
e 264 505 7.0
e 265 95 2.0
e 265 293 1.0
e 265 634 47.0
e 265 484 1.0
e 266 181 1.0
e 266 638 1.0
e 266 351 17.0
e 266 528 1.0
e 267 214 31.0
e 267 111 1.0
e 267 331 1.0
e 267 391 1.0
e 268 548 2.0
e 268 366 1.0
e 268 39 1.0
e 268 299 1.0
e 269 419 1.0
e 269 486 1.0
e 269 10 1.0
e 269 39 1.0
e 270 144 10.0
e 270 414 16.0
e 270 525 31.0
e 270 537 1.0
e 270 196 48.0
e 271 97 2.0
e 271 90 1.0
e 271 8 1.0
e 271 36 1.0
e 272 123 1.0
e 272 574 1.0
e 272 450 1.0
e 272 397 1.0
e 273 305 2.0
e 273 66 1.0
e 273 154 1.0
e 273 245 1.0
e 274 321 1.0
e 274 154 1.0
e 274 1 1.0
e 274 48 1.0
e 275 136 1.0
e 275 157 9.0
e 275 82 1.0
e 275 135 1.0
e 276 522 1.0
e 276 571 2.0
e 276 623 1.0
e 276 26 1.0
e 277 63 1.0
e 277 616 2.0
e 277 408 1.0
e 277 310 1.0
e 278 185 1.0
e 278 611 1.0
e 278 551 1.0
e 278 65 2.0
e 279 450 1.0
e 279 7 1.0
e 279 504 1.0
e 279 176 1.0
e 280 294 1.0
e 280 419 1.0
e 280 503 1.0
e 280 30 1.0
e 281 456 1.0
e 281 510 32.0
e 281 422 45.0
e 281 199 11.0
e 282 582 1.0
e 282 366 1.0
e 282 455 36.0
e 282 363 1.0
e 283 503 1.0
e 283 358 1.0
e 283 60 1.0
e 283 546 2.0
e 284 430 2.0
e 284 564 1.0
e 284 574 2.0
e 284 377 1.0
e 285 171 1.0
e 285 327 1.0
e 285 565 1.0
e 285 581 1.0
e 286 413 1.0
e 286 278 1.0
e 286 508 1.0
e 286 276 1.0
e 287 130 1.0
e 287 266 1.0
e 287 128 2.0
e 287 248 3.0
e 288 397 3.0
e 288 267 1.0
e 288 152 2.0
e 288 56 1.0
e 289 169 1.0
e 289 160 8.0
e 289 239 1.0
e 289 130 1.0
e 290 589 49.0
e 290 51 19.0
e 290 306 49.0
e 290 379 35.0
e 290 216 1.0
e 290 195 12.0
e 290 226 21.0
e 291 481 1.0
e 291 565 1.0
e 291 443 3.0
e 291 609 1.0
e 292 229 2.0
e 292 139 1.0
e 292 586 1.0
e 292 590 13.0
e 293 421 41.0
e 293 550 1.0
e 293 192 1.0
e 293 439 2.0
e 294 485 30.0
e 294 513 2.0
e 294 209 1.0
e 294 4 1.0
e 295 575 10.0
e 295 446 2.0
e 295 605 1.0
e 295 361 1.0
e 296 429 1.0
e 296 195 29.0
e 296 159 1.0
e 296 531 2.0
e 297 381 18.0
e 297 474 36.0
e 297 130 41.0
e 297 181 32.0
e 297 302 30.0
e 298 506 37.0
e 298 18 27.0
e 298 239 32.0
e 298 632 4.0
e 298 525 24.0
e 298 228 4.0
e 299 43 2.0
e 299 92 1.0
e 299 203 1.0
e 299 119 1.0
e 300 373 1.0
e 300 87 1.0
e 300 475 2.0
e 300 462 1.0
e 301 510 1.0
e 301 68 1.0
e 301 9 1.0
e 301 257 1.0
e 302 358 21.0
e 302 456 33.0
e 302 634 18.0
e 302 523 11.0
e 303 379 1.0
e 303 598 1.0
e 303 532 1.0
e 303 511 1.0
e 304 569 1.0
e 304 413 1.0
e 304 431 2.0
e 304 572 1.0
e 305 375 1.0
e 305 255 1.0
e 305 227 1.0
e 305 220 2.0
e 306 628 2.0
e 306 72 1.0
e 306 162 1.0
e 306 562 2.0
e 307 218 1.0
e 307 214 13.0
e 307 45 27.0
e 307 219 1.0
e 308 243 17.0
e 308 241 5.0
e 308 488 14.0
e 308 147 13.0
e 309 61 1.0
e 309 486 1.0
e 309 242 2.0
e 309 478 1.0
e 310 547 1.0
e 310 455 3.0
e 310 558 2.0
e 310 587 2.0
e 311 403 1.0
e 311 312 2.0
e 311 369 1.0
e 311 286 1.0
e 312 439 2.0
e 312 467 1.0
e 312 362 2.0
e 312 76 32.0
e 313 147 1.0
e 313 351 21.0
e 313 337 1.0
e 313 451 2.0
e 314 443 2.0
e 314 490 1.0
e 314 410 1.0
e 314 34 1.0
e 315 511 1.0
e 315 496 1.0
e 315 551 2.0
e 315 211 1.0
e 316 13 1.0
e 316 340 1.0
e 316 168 1.0
e 316 578 2.0
e 317 392 7.0
e 317 235 43.0
e 317 295 11.0
e 317 222 8.0
e 318 179 28.0
e 318 459 1.0
e 318 634 19.0
e 318 28 1.0
e 319 99 1.0
e 319 618 1.0
e 319 504 1.0
e 319 616 1.0
e 320 91 11.0
e 320 459 20.0
e 320 446 39.0
e 320 260 27.0
e 321 84 2.0
e 321 266 1.0
e 321 454 1.0
e 321 362 1.0
e 322 448 1.0
e 322 335 1.0
e 322 163 25.0
e 322 71 1.0
e 323 168 1.0
e 323 137 1.0
e 323 33 2.0
e 323 365 18.0
e 324 234 1.0
e 324 599 2.0
e 324 128 1.0
e 324 590 49.0
e 325 415 36.0
e 325 633 13.0
e 325 426 4.0
e 325 57 16.0
e 326 171 2.0
e 326 547 2.0
e 326 262 3.0
e 326 610 9.0
e 327 122 42.0
e 327 565 1.0
e 327 196 12.0
e 327 434 1.0
e 328 53 3.0
e 328 544 3.0
e 328 197 1.0
e 328 458 1.0
e 329 504 2.0
e 329 530 3.0
e 329 5 3.0
e 329 179 16.0
e 330 95 1.0
e 330 481 1.0
e 330 215 1.0
e 330 226 27.0
e 331 352 1.0
e 331 264 26.0
e 331 1 1.0
e 331 599 37.0
e 332 553 21.0
e 332 15 24.0
e 332 75 36.0
e 332 279 48.0
e 332 244 39.0
e 332 264 27.0
e 332 604 13.0
e 333 478 1.0
e 333 303 1.0
e 333 490 1.0
e 333 252 23.0
e 334 470 39.0
e 334 263 34.0
e 334 328 23.0
e 334 158 29.0
e 334 509 38.0
e 334 248 22.0
e 334 270 47.0
e 335 37 1.0
e 335 455 49.0
e 335 439 2.0
e 335 137 1.0
e 336 52 33.0
e 336 130 19.0
e 336 233 4.0
e 336 598 11.0
e 337 543 1.0
e 337 246 1.0
e 337 175 1.0
e 337 527 3.0
e 338 211 3.0
e 338 294 2.0
e 338 439 1.0
e 338 150 1.0
e 339 596 43.0
e 339 576 2.0
e 339 501 1.0
e 339 30 1.0
e 340 279 1.0
e 340 384 1.0
e 340 100 2.0
e 340 267 1.0
e 341 638 1.0
e 341 539 1.0
e 341 294 2.0
e 341 28 1.0
e 342 283 1.0
e 342 257 1.0
e 342 589 1.0
e 342 154 1.0
e 343 325 38.0
e 343 355 8.0
e 343 183 39.0
e 343 638 1.0
e 344 66 1.0
e 344 446 2.0
e 344 561 2.0
e 344 543 1.0
e 345 455 30.0
e 345 173 2.0
e 345 277 1.0
e 345 137 1.0
e 346 288 1.0
e 346 222 1.0
e 346 206 1.0
e 346 591 3.0
e 347 207 2.0
e 347 136 2.0
e 347 421 49.0
e 347 626 1.0
e 348 39 1.0
e 348 579 1.0
e 348 583 1.0
e 348 631 1.0
e 349 115 1.0
e 349 358 1.0
e 349 202 1.0
e 349 251 1.0
e 350 318 1.0
e 350 617 1.0
e 350 42 1.0
e 350 287 1.0
e 351 537 16.0
e 351 429 6.0
e 351 92 43.0
e 351 442 39.0
e 352 229 1.0
e 352 421 42.0
e 352 380 1.0
e 352 52 2.0
e 353 448 5.0
e 353 550 40.0
e 353 560 11.0
e 353 576 33.0
e 354 11 1.0
e 354 537 1.0
e 354 328 1.0
e 354 250 1.0
e 355 70 14.0
e 355 77 29.0
e 355 210 48.0
e 355 515 4.0
e 356 277 1.0
e 356 275 1.0
e 356 197 3.0
e 356 94 23.0
e 357 621 1.0
e 357 470 1.0
e 357 498 1.0
e 357 530 2.0
e 358 179 33.0
e 358 397 1.0
e 358 458 1.0
e 358 470 1.0
e 359 197 1.0
e 359 613 1.0
e 359 92 1.0
e 359 621 1.0
e 360 602 3.0
e 360 387 1.0
e 360 251 2.0
e 360 184 1.0
e 361 73 1.0
e 361 630 37.0
e 361 13 1.0
e 361 631 1.0
e 362 600 1.0
e 362 84 1.0
e 362 225 1.0
e 362 431 1.0
e 363 54 3.0
e 363 518 1.0
e 363 578 2.0
e 363 397 2.0
e 364 584 1.0
e 364 306 1.0
e 364 631 1.0
e 364 369 2.0
e 365 259 14.0
e 365 374 39.0
e 365 242 5.0
e 365 0 41.0
e 366 263 1.0
e 366 512 1.0
e 366 331 1.0
e 366 549 1.0
e 367 59 1.0
e 367 520 1.0
e 367 387 1.0
e 367 375 2.0
e 368 503 1.0
e 368 217 2.0
e 368 454 1.0
e 368 219 1.0
e 369 575 29.0
e 369 384 3.0
e 369 293 1.0
e 369 453 2.0
e 370 408 1.0
e 370 4 1.0
e 370 474 1.0
e 370 63 1.0
e 371 220 1.0
e 371 633 1.0
e 371 159 1.0
e 371 62 2.0
e 372 625 1.0
e 372 243 1.0
e 372 219 1.0
e 372 143 13.0
e 373 143 47.0
e 373 72 1.0
e 373 472 2.0
e 373 432 2.0
e 374 480 2.0
e 374 266 1.0
e 374 467 1.0
e 374 84 1.0
e 375 388 2.0
e 375 512 2.0
e 375 64 2.0
e 375 548 1.0
e 376 4 2.0
e 376 584 1.0
e 376 344 1.0
e 376 631 1.0
e 377 242 1.0
e 377 6 1.0
e 377 481 2.0
e 377 385 32.0
e 378 311 1.0
e 378 317 25.0
e 378 79 1.0
e 378 499 2.0
e 379 323 2.0
e 379 230 1.0
e 379 256 2.0
e 379 241 1.0
e 380 236 16.0
e 380 157 20.0
e 380 194 1.0
e 380 300 1.0
e 381 306 2.0
e 381 65 2.0
e 381 159 1.0
e 381 165 2.0
e 382 111 1.0
e 382 436 20.0
e 382 374 1.0
e 383 616 1.0
e 383 466 1.0
e 383 77 1.0
e 383 45 19.0
e 384 131 1.0
e 384 338 1.0
e 384 160 2.0
e 384 483 2.0
e 385 499 47.0
e 385 267 4.0
e 385 479 27.0
e 385 198 45.0
e 385 525 8.0
e 385 281 20.0
e 386 83 1.0
e 386 616 2.0
e 386 158 2.0
e 386 108 45.0
e 387 320 9.0
e 387 402 1.0
e 387 183 24.0
e 387 566 2.0
e 388 325 22.0
e 388 324 1.0
e 388 75 1.0
e 388 464 1.0
e 389 146 3.0
e 389 94 11.0
e 389 141 2.0
e 389 614 1.0
e 390 351 36.0
e 390 66 1.0
e 390 347 1.0
e 390 416 2.0
e 391 24 10.0
e 391 430 2.0
e 391 122 4.0
e 391 103 1.0
e 392 320 39.0
e 392 48 1.0
e 392 158 1.0
e 392 467 1.0
e 393 384 5.0
e 393 509 18.0
e 393 613 30.0
e 393 211 9.0
e 393 290 25.0
e 393 538 11.0
e 393 636 2.0
e 394 395 1.0
e 394 585 1.0
e 394 85 1.0
e 394 510 1.0
e 395 79 1.0
e 395 588 1.0
e 395 278 1.0
e 395 346 1.0
e 396 312 1.0
e 396 613 1.0
e 396 58 1.0
e 396 369 1.0
e 397 23 23.0
e 397 280 1.0
e 397 4 1.0
e 397 592 3.0
e 398 224 1.0
e 398 471 1.0
e 398 288 2.0
e 398 360 1.0
e 399 358 1.0
e 399 619 1.0
e 399 534 2.0
e 399 176 2.0
e 400 254 1.0
e 400 388 1.0
e 400 374 1.0
e 400 362 1.0
e 401 296 1.0
e 401 323 1.0
e 401 22 1.0
e 401 550 1.0
e 402 277 1.0
e 402 314 1.0
e 402 134 1.0
e 402 415 1.0
e 403 14 1.0
e 403 84 1.0
e 403 362 1.0
e 403 279 1.0
e 404 566 2.0
e 404 9 1.0
e 404 562 2.0
e 404 301 1.0
e 405 270 7.0
e 405 358 1.0
e 405 294 1.0
e 405 92 1.0
e 406 211 1.0
e 406 287 1.0
e 406 476 2.0
e 406 24 29.0
e 407 511 11.0
e 407 288 31.0
e 407 272 16.0
e 407 405 1.0
e 408 130 1.0
e 408 187 1.0
e 408 88 1.0
e 408 136 1.0
e 409 515 1.0
e 409 230 2.0
e 409 189 1.0
e 409 99 1.0
e 410 377 1.0
e 410 176 1.0
e 410 137 1.0
e 410 458 1.0
e 411 547 1.0
e 411 446 1.0
e 411 297 47.0
e 411 431 1.0
e 412 281 14.0
e 412 279 1.0
e 412 108 6.0
e 412 341 1.0
e 413 90 1.0
e 413 404 1.0
e 413 582 1.0
e 413 387 1.0
e 414 249 2.0
e 414 200 1.0
e 414 438 1.0
e 414 631 1.0
e 415 634 31.0
e 415 329 2.0
e 415 188 1.0
e 415 441 1.0
e 416 382 1.0
e 416 479 1.0
e 416 471 1.0
e 416 294 1.0
e 417 243 2.0
e 417 117 1.0
e 417 53 2.0
e 417 252 16.0
e 418 41 38.0
e 418 53 13.0
e 418 176 13.0
e 418 391 30.0
e 418 297 40.0
e 418 463 48.0
e 419 500 2.0
e 419 193 1.0
e 419 0 1.0
e 419 503 1.0
e 420 273 1.0
e 420 298 25.0
e 420 124 1.0
e 420 233 2.0
e 421 524 2.0
e 421 482 20.0
e 421 233 22.0
e 421 613 24.0
e 422 59 1.0
e 422 282 2.0
e 422 595 10.0
e 422 5 1.0
e 423 44 1.0
e 423 358 1.0
e 423 378 1.0
e 423 380 1.0
e 424 204 1.0
e 424 633 1.0
e 424 630 35.0
e 424 492 2.0
e 425 75 1.0
e 425 329 2.0
e 425 464 1.0
e 425 594 1.0
e 426 288 2.0
e 426 387 1.0
e 426 27 1.0
e 426 609 1.0
e 427 509 32.0
e 427 633 1.0
e 427 288 1.0
e 427 200 1.0
e 428 18 1.0
e 428 78 2.0
e 428 144 1.0
e 428 245 1.0
e 429 89 1.0
e 429 586 1.0
e 429 583 3.0
e 429 633 1.0
e 430 324 2.0
e 430 606 1.0
e 430 96 1.0
e 430 520 1.0
e 431 452 9.0
e 431 168 1.0
e 431 367 2.0
e 431 615 2.0
e 432 630 30.0
e 432 386 1.0
e 432 587 1.0
e 432 138 45.0
e 433 429 1.0
e 433 139 1.0
e 433 33 2.0
e 433 303 1.0
e 434 601 2.0
e 434 127 1.0
e 434 87 1.0
e 434 46 1.0
e 435 620 2.0
e 435 246 1.0
e 435 68 1.0
e 435 162 1.0
e 436 610 8.0
e 436 378 17.0
e 436 102 29.0
e 436 375 43.0
e 436 636 38.0
e 436 298 12.0
e 437 151 6.0
e 437 61 2.0
e 437 245 1.0
e 437 562 1.0
e 438 355 28.0
e 438 314 1.0
e 438 249 2.0
e 438 102 6.0
e 439 526 1.0
e 439 57 1.0
e 439 388 1.0
e 439 602 1.0
e 440 492 2.0
e 440 634 3.0
e 440 571 2.0
e 440 442 2.0
e 441 42 1.0
e 441 169 1.0
e 441 237 1.0
e 441 608 3.0
e 442 424 25.0
e 442 610 6.0
e 442 600 45.0
e 442 503 30.0
e 443 461 2.0
e 443 87 3.0
e 443 570 2.0
e 443 613 1.0
e 444 424 1.0
e 444 436 9.0
e 444 613 1.0
e 444 269 1.0
e 445 322 2.0
e 445 323 1.0
e 445 484 1.0
e 445 84 2.0
e 446 539 1.0
e 446 237 1.0
e 446 126 2.0
e 446 426 1.0
e 447 65 1.0
e 447 224 1.0
e 447 383 1.0
e 447 368 2.0
e 448 31 2.0
e 448 528 2.0
e 448 401 2.0
e 448 518 3.0
e 449 175 1.0
e 449 539 1.0
e 449 174 2.0
e 449 543 1.0
e 450 510 1.0
e 450 493 1.0
e 450 538 5.0
e 450 228 24.0
e 451 147 1.0
e 451 502 1.0
e 451 82 2.0
e 451 582 1.0
e 452 249 28.0
e 452 586 27.0
e 452 391 42.0
e 452 414 27.0
e 452 308 14.0
e 453 580 1.0
e 453 33 1.0
e 453 439 3.0
e 453 288 1.0
e 454 163 43.0
e 454 224 1.0
e 454 599 3.0
e 454 634 24.0
e 455 615 26.0
e 455 587 6.0
e 455 111 30.0
e 455 214 18.0
e 456 35 1.0
e 456 454 1.0
e 456 113 28.0
e 456 419 1.0
e 457 492 2.0
e 457 490 1.0
e 457 134 1.0
e 457 73 1.0
e 458 198 1.0
e 458 632 2.0
e 458 252 35.0
e 458 593 2.0
e 459 481 2.0
e 459 460 2.0
e 459 195 28.0
e 459 407 14.0
e 460 576 2.0
e 460 176 1.0
e 460 597 1.0
e 460 386 1.0
e 461 438 1.0
e 461 54 1.0
e 461 322 2.0
e 461 77 1.0
e 462 37 2.0
e 462 121 1.0
e 462 271 1.0
e 462 574 2.0
e 463 0 10.0
e 463 318 35.0
e 463 625 39.0
e 463 53 39.0
e 464 417 1.0
e 464 493 1.0
e 464 304 2.0
e 464 40 1.0
e 465 382 1.0
e 465 329 2.0
e 465 101 1.0
e 465 522 1.0
e 466 207 1.0
e 466 290 43.0
e 466 513 1.0
e 466 288 2.0
e 467 613 1.0
e 467 329 1.0
e 467 368 2.0
e 467 514 1.0
e 468 147 3.0
e 468 177 1.0
e 468 581 1.0
e 468 103 1.0
e 469 637 2.0
e 469 578 3.0
e 469 296 1.0
e 469 35 1.0
e 470 396 1.0
e 470 105 1.0
e 470 300 1.0
e 470 243 1.0
e 471 91 1.0
e 471 351 39.0
e 471 547 1.0
e 471 45 38.0
e 472 158 2.0
e 472 115 1.0
e 472 78 1.0
e 472 117 1.0
e 473 430 33.0
e 473 273 35.0
e 473 593 16.0
e 473 42 17.0
e 473 317 17.0
e 473 320 44.0
e 473 325 38.0
e 474 179 23.0
e 474 372 1.0
e 474 184 1.0
e 474 602 2.0
e 475 276 1.0
e 475 342 1.0
e 475 439 2.0
e 475 294 1.0
e 476 440 1.0
e 476 274 1.0
e 476 247 1.0
e 477 433 1.0
e 477 106 43.0
e 477 582 1.0
e 477 407 44.0
e 478 219 1.0
e 478 18 1.0
e 478 106 20.0
e 478 447 1.0
e 479 267 1.0
e 479 308 32.0
e 479 567 1.0
e 479 317 7.0
e 480 622 1.0
e 480 288 1.0
e 480 366 1.0
e 480 376 1.0
e 481 217 1.0
e 481 53 1.0
e 481 353 23.0
e 481 189 1.0
e 482 84 1.0
e 482 177 1.0
e 482 520 1.0
e 482 413 1.0
e 483 119 2.0
e 483 39 1.0
e 483 580 2.0
e 483 96 2.0
e 484 190 1.0
e 484 384 1.0
e 484 276 1.0
e 484 294 1.0
e 485 415 43.0
e 485 105 42.0
e 485 611 19.0
e 485 239 18.0
e 486 414 1.0
e 486 247 1.0
e 486 329 1.0
e 486 570 2.0
e 487 112 1.0
e 487 51 40.0
e 487 463 12.0
e 487 253 1.0
e 488 186 1.0
e 488 246 1.0
e 488 371 1.0
e 488 325 10.0
e 489 1 2.0
e 489 277 2.0
e 489 302 43.0
e 489 39 1.0
e 490 123 1.0
e 490 263 1.0
e 490 532 1.0
e 490 437 1.0
e 491 422 1.0
e 491 331 1.0
e 491 447 1.0
e 491 124 2.0
e 492 216 13.0
e 492 386 1.0
e 492 374 1.0
e 492 89 2.0
e 493 555 1.0
e 493 101 1.0
e 493 609 1.0
e 493 310 2.0
e 494 471 1.0
e 494 51 33.0
e 494 246 2.0
e 494 584 1.0
e 495 21 1.0
e 495 482 1.0
e 495 591 1.0
e 495 425 1.0
e 496 3 1.0
e 496 52 1.0
e 496 310 2.0
e 496 111 1.0
e 497 373 3.0
e 497 247 1.0
e 497 414 1.0
e 497 405 1.0
e 498 478 1.0
e 498 568 2.0
e 498 44 1.0
e 498 115 1.0
e 499 454 2.0
e 499 70 1.0
e 499 598 1.0
e 499 166 2.0
e 500 37 2.0
e 500 268 1.0
e 500 598 2.0
e 500 325 5.0
e 501 406 3.0
e 501 552 1.0
e 501 210 1.0
e 501 372 1.0
e 502 355 47.0
e 502 44 1.0
e 502 69 2.0
e 503 188 1.0
e 503 575 12.0
e 503 557 1.0
e 503 618 2.0
e 504 268 2.0
e 504 101 1.0
e 504 463 38.0
e 504 288 1.0
e 505 323 29.0
e 505 550 4.0
e 505 302 49.0
e 505 536 35.0
e 506 193 1.0
e 506 624 2.0
e 506 59 2.0
e 506 5 1.0
e 507 137 2.0
e 507 437 2.0
e 507 4 2.0
e 507 246 1.0
e 508 583 1.0
e 508 495 1.0
e 508 254 1.0
e 508 166 1.0
e 509 111 11.0
e 509 88 19.0
e 509 409 14.0
e 509 186 27.0
e 510 179 21.0
e 510 245 1.0
e 510 112 1.0
e 510 463 47.0
e 511 148 1.0
e 511 498 1.0
e 511 259 1.0
e 511 57 1.0
e 512 212 1.0
e 512 396 1.0
e 512 315 1.0
e 512 92 1.0
e 513 575 24.0
e 513 553 1.0
e 513 120 2.0
e 513 343 1.0
e 514 291 1.0
e 514 414 1.0
e 514 383 1.0
e 514 562 3.0
e 515 444 2.0
e 515 637 1.0
e 515 318 2.0
e 515 561 1.0
e 516 426 1.0
e 516 52 1.0
e 516 33 1.0
e 516 432 1.0
e 517 627 1.0
e 517 345 1.0
e 517 452 6.0
e 517 432 2.0
e 518 214 2.0
e 518 220 1.0
e 518 183 6.0
e 518 53 1.0
e 519 534 1.0
e 519 61 1.0
e 519 397 1.0
e 519 557 1.0
e 520 104 49.0
e 520 412 1.0
e 520 408 1.0
e 520 281 33.0
e 521 133 2.0
e 521 308 4.0
e 521 511 1.0
e 521 218 1.0
e 522 631 1.0
e 522 227 1.0
e 522 489 1.0
e 523 162 2.0
e 523 324 2.0
e 523 376 2.0
e 523 410 1.0
e 524 401 1.0
e 524 277 1.0
e 524 366 2.0
e 524 107 1.0
e 525 202 2.0
e 525 46 9.0
e 525 618 29.0
e 525 207 21.0
e 525 332 13.0
e 526 24 32.0
e 526 511 1.0
e 526 230 1.0
e 526 116 2.0
e 527 99 1.0
e 527 509 23.0
e 527 233 2.0
e 527 14 1.0
e 528 320 34.0
e 528 286 1.0
e 528 163 28.0
e 528 204 2.0
e 529 376 1.0
e 529 100 2.0
e 529 59 2.0
e 529 458 1.0
e 530 269 2.0
e 530 92 2.0
e 530 95 1.0
e 530 604 10.0
e 531 247 1.0
e 531 545 1.0
e 531 194 1.0
e 531 618 2.0
e 532 90 1.0
e 532 347 1.0
e 532 38 1.0
e 532 409 1.0
e 533 385 13.0
e 533 336 2.0
e 533 578 2.0
e 533 602 1.0
e 534 492 1.0
e 534 583 1.0
e 534 23 38.0
e 534 340 1.0
e 535 326 1.0
e 535 273 1.0
e 535 209 1.0
e 535 601 1.0
e 536 317 48.0
e 536 496 1.0
e 536 238 1.0
e 536 336 24.0
e 537 363 1.0
e 537 105 2.0
e 537 626 1.0
e 537 3 1.0
e 538 239 11.0
e 538 454 18.0
e 538 234 1.0
e 538 427 43.0
e 538 365 40.0
e 538 473 24.0
e 539 528 1.0
e 539 453 1.0
e 539 51 3.0
e 539 120 1.0
e 540 62 2.0
e 540 379 2.0
e 540 153 1.0
e 540 86 1.0
e 541 66 2.0
e 541 190 1.0
e 541 90 1.0
e 541 29 1.0
e 542 531 1.0
e 542 100 1.0
e 542 631 1.0
e 542 17 2.0
e 543 568 1.0
e 543 4 1.0
e 543 178 2.0
e 544 424 1.0
e 544 217 1.0
e 544 498 1.0
e 544 58 1.0
e 545 131 1.0
e 545 535 2.0
e 545 155 1.0
e 545 352 1.0
e 546 338 1.0
e 546 549 1.0
e 546 29 1.0
e 546 380 1.0
e 547 261 1.0
e 547 123 1.0
e 547 202 1.0
e 547 401 1.0
e 548 620 2.0
e 548 558 1.0
e 548 344 2.0
e 548 190 3.0
e 549 331 1.0
e 549 324 1.0
e 549 287 1.0
e 549 370 1.0
e 550 22 1.0
e 550 339 1.0
e 550 378 1.0
e 550 93 1.0
e 551 324 1.0
e 551 375 2.0
e 551 562 1.0
e 551 496 1.0
e 552 624 1.0
e 552 285 1.0
e 552 518 1.0
e 552 255 2.0
e 553 145 1.0
e 553 246 1.0
e 553 27 1.0
e 553 492 1.0
e 554 522 1.0
e 554 306 2.0
e 554 254 1.0
e 554 635 1.0
e 555 614 1.0
e 555 42 1.0
e 555 332 26.0
e 555 6 1.0
e 556 12 1.0
e 556 138 22.0
e 556 511 2.0
e 556 263 1.0
e 557 543 1.0
e 557 565 1.0
e 557 355 36.0
e 557 324 1.0
e 558 74 2.0
e 558 137 1.0
e 558 420 1.0
e 558 509 5.0
e 559 148 2.0
e 559 126 1.0
e 559 504 2.0
e 559 20 2.0
e 560 595 39.0
e 560 548 2.0
e 560 516 1.0
e 560 608 2.0
e 561 608 1.0
e 561 23 10.0
e 561 430 2.0
e 561 100 1.0
e 562 419 1.0
e 562 630 26.0
e 562 231 1.0
e 562 85 1.0
e 563 408 1.0
e 563 502 1.0
e 563 558 1.0
e 563 371 1.0
e 564 558 1.0
e 564 119 1.0
e 564 550 2.0
e 564 252 20.0
e 565 125 10.0
e 565 518 1.0
e 565 116 1.0
e 565 290 5.0
e 566 106 31.0
e 566 315 1.0
e 566 25 1.0
e 566 32 2.0
e 567 34 1.0
e 567 27 2.0
e 567 405 1.0
e 567 404 1.0
e 568 572 2.0
e 568 356 1.0
e 568 275 1.0
e 568 351 40.0
e 569 117 1.0
e 569 591 1.0
e 569 236 15.0
e 569 242 2.0
e 570 68 1.0
e 570 602 2.0
e 570 320 22.0
e 570 378 3.0
e 571 15 1.0
e 571 37 1.0
e 571 344 1.0
e 571 442 41.0
e 572 271 2.0
e 572 602 3.0
e 572 322 1.0
e 572 501 1.0
e 573 511 1.0
e 573 82 1.0
e 573 552 1.0
e 573 391 3.0
e 574 368 1.0
e 574 522 1.0
e 574 372 1.0
e 574 598 1.0
e 575 5 44.0
e 575 324 3.0
e 575 632 24.0
e 575 239 27.0
e 576 468 1.0
e 576 569 2.0
e 576 497 1.0
e 576 551 1.0
e 577 583 2.0
e 577 106 5.0
e 577 408 1.0
e 577 27 1.0
e 578 239 1.0
e 578 597 1.0
e 578 320 12.0
e 578 17 1.0
e 579 226 45.0
e 579 153 2.0
e 579 606 1.0
e 579 60 1.0
e 580 530 1.0
e 580 181 2.0
e 580 257 3.0
e 580 638 1.0
e 581 210 1.0
e 581 161 1.0
e 581 87 2.0
e 581 546 1.0
e 582 202 1.0
e 582 478 1.0
e 582 347 1.0
e 582 180 33.0
e 583 611 1.0
e 583 93 1.0
e 583 501 1.0
e 583 468 1.0
e 584 82 1.0
e 584 33 2.0
e 584 489 1.0
e 584 92 1.0
e 585 431 1.0
e 585 608 1.0
e 585 337 2.0
e 586 603 2.0
e 586 29 1.0
e 586 3 2.0
e 586 105 1.0
e 587 427 1.0
e 587 338 3.0
e 587 531 2.0
e 587 81 1.0
e 588 595 14.0
e 588 51 34.0
e 588 100 1.0
e 588 170 1.0
e 589 438 1.0
e 589 393 4.0
e 589 604 45.0
e 589 55 1.0
e 590 453 20.0
e 590 275 29.0
e 590 308 6.0
e 590 117 38.0
e 591 359 1.0
e 591 208 2.0
e 591 96 2.0
e 591 337 2.0
e 592 390 1.0
e 592 585 1.0
e 592 227 2.0
e 592 126 1.0
e 593 560 1.0
e 593 527 1.0
e 593 337 2.0
e 593 396 1.0
e 594 589 1.0
e 594 463 8.0
e 594 40 1.0
e 594 342 1.0
e 595 336 19.0
e 595 372 44.0
e 595 160 23.0
e 595 483 47.0
e 596 165 37.0
e 596 289 40.0
e 596 115 38.0
e 596 85 34.0
e 597 31 1.0
e 597 633 1.0
e 597 176 1.0
e 597 347 1.0
e 598 442 45.0
e 598 339 2.0
e 598 120 1.0
e 598 609 1.0
e 599 545 21.0
e 599 353 9.0
e 599 637 13.0
e 599 551 12.0
e 600 183 45.0
e 600 65 3.0
e 600 276 1.0
e 600 208 1.0
e 601 496 1.0
e 601 543 2.0
e 601 633 1.0
e 601 270 35.0
e 602 456 1.0
e 602 531 2.0
e 602 481 1.0
e 602 263 1.0
e 603 124 2.0
e 603 35 1.0
e 603 489 1.0
e 603 413 1.0
e 604 541 37.0
e 604 398 39.0
e 604 529 31.0
e 604 414 12.0
e 605 192 1.0
e 605 93 1.0
e 605 272 1.0
e 605 15 1.0
e 606 85 1.0
e 606 89 1.0
e 606 416 1.0
e 606 618 2.0
e 607 53 1.0
e 607 585 1.0
e 607 553 1.0
e 607 153 1.0
e 608 179 38.0
e 608 335 1.0
e 608 530 1.0
e 608 535 2.0
e 609 364 1.0
e 609 155 2.0
e 609 223 1.0
e 609 269 1.0
e 610 401 37.0
e 610 45 45.0
e 610 553 9.0
e 610 234 10.0
e 611 629 1.0
e 611 178 1.0
e 611 588 1.0
e 611 614 1.0
e 612 316 1.0
e 612 522 1.0
e 612 594 1.0
e 612 434 1.0
e 613 628 1.0
e 613 516 1.0
e 613 147 2.0
e 613 142 1.0
e 614 506 1.0
e 614 83 1.0
e 614 603 1.0
e 614 6 1.0
e 615 223 1.0
e 615 574 1.0
e 615 599 47.0
e 615 254 1.0
e 616 94 17.0
e 616 186 2.0
e 616 561 1.0
e 616 241 1.0
e 617 366 1.0
e 617 384 1.0
e 617 252 3.0
e 617 260 2.0
e 618 254 1.0
e 618 294 1.0
e 618 392 1.0
e 618 201 1.0
e 619 132 2.0
e 619 291 1.0
e 619 180 49.0
e 619 376 1.0
e 620 364 3.0
e 620 64 1.0
e 620 366 2.0
e 620 586 1.0
e 621 218 1.0
e 621 422 1.0
e 621 310 1.0
e 621 89 1.0
e 622 207 1.0
e 622 220 1.0
e 622 631 1.0
e 622 417 1.0
e 623 506 1.0
e 623 387 1.0
e 623 493 1.0
e 623 469 1.0
e 624 94 32.0
e 624 76 35.0
e 624 318 1.0
e 624 255 2.0
e 625 491 2.0
e 625 296 2.0
e 625 235 1.0
e 625 300 1.0
e 626 205 1.0
e 626 305 1.0
e 626 615 1.0
e 626 18 1.0
e 627 450 1.0
e 627 155 1.0
e 627 410 1.0
e 627 445 1.0
e 628 519 1.0
e 628 361 1.0
e 628 194 1.0
e 628 187 1.0
e 629 573 2.0
e 629 155 2.0
e 629 300 1.0
e 629 7 1.0
e 630 413 1.0
e 630 240 17.0
e 630 421 23.0
e 630 443 40.0
e 631 440 1.0
e 631 412 1.0
e 631 208 2.0
e 631 482 1.0
e 632 141 1.0
e 632 598 1.0
e 632 105 1.0
e 632 304 1.0
e 633 568 2.0
e 633 253 1.0
e 633 45 40.0
e 633 583 1.0
e 634 58 31.0
e 634 457 48.0
e 634 270 33.0
e 634 80 46.0
e 635 15 1.0
e 635 143 41.0
e 635 362 2.0
e 635 261 3.0
e 636 102 49.0
e 636 450 33.0
e 636 239 42.0
e 636 167 49.0
e 637 558 2.0
e 637 520 1.0
e 637 480 1.0
e 637 313 2.0
e 638 479 2.0
e 638 136 2.0
e 638 597 1.0
e 638 267 2.0
e 639 537 1.0
e 639 630 37.0
e 639 609 1.0
e 639 236 24.0
